70 170775
21 40 50 1 13 36 32 49 2 65 66 18 38 52 42 6 63 58 62 33 34 7 31 30 37 44 70 20 28 51 19 17 14 35 59 41 39 5 3 25 43 4 61 11 45 67 53 24 64 27 16 56 46 54 48 9 60 10 12 55 69 23 8 57 47 15 29 26 68 22 
